
Gurobi 6.5.2 (linux64) logging started Thu Jan 25 20:43:03 2018

Changed value of parameter LogFile to data/mip_solutions/furman_sahinidis/reduced_transportation/6sp-cf1_gurobi.log
   Prev: gurobi.log  Default: 
Changed value of parameter Threads to 1
   Prev: 0  Min: 0  Max: 1024  Default: 0
Optimize a model with 49 rows, 194 columns and 566 nonzeros
Coefficient statistics:
  Matrix range    [1e+00, 2e+03]
  Objective range [1e+00, 1e+00]
  Bounds range    [1e+00, 1e+00]
  RHS range       [1e+00, 6e+02]
Found heuristic solution: objective 10
Presolve removed 23 rows and 143 columns
Presolve time: 0.00s
Presolved: 26 rows, 51 columns, 132 nonzeros
Variable types: 40 continuous, 11 integer (11 binary)

Root relaxation: objective 4.183333e+00, 47 iterations, 0.00 seconds

    Nodes    |    Current Node    |     Objective Bounds      |     Work
 Expl Unexpl |  Obj  Depth IntInf | Incumbent    BestBd   Gap | It/Node Time

     0     0    4.18333    0    3   10.00000    4.18333  58.2%     -    0s
H    0     0                       6.0000000    4.18333  30.3%     -    0s
     0     0    4.46875    0    8    6.00000    4.46875  25.5%     -    0s
     0     0     cutoff    0         6.00000    5.00001  16.7%     -    0s

Cutting planes:
  Gomory: 1
  Cover: 1
  Implied bound: 1
  MIR: 2
  Flow cover: 1
  Network: 1

Explored 0 nodes (71 simplex iterations) in 0.00 seconds
Thread count was 1 (of 8 available processors)

Optimal solution found (tolerance 4.00e-02)
Best objective 6.000000000000e+00, best bound 6.000000000000e+00, gap 0.0%
